Ala(zwitterion)+6H2O (cluster)  gap_tota
   1.00000000000000     
    20.0000000000000000    0.0000000000000000    0.0000000000000000
     0.0000000000000000   20.0000000000000000    0.0000000000000000
     0.0000000000000000    0.0000000000000000   20.0000000000000000
  N               H               C               O             
     1    19     3     8
Direct
     0.3608672400657227    0.2833662337557286    0.3083819754185413
     0.3385306209640504    0.2378655994927001    0.2981883067850220
     0.3846393367281280    0.2794025112672145    0.3553871383067531
     0.3946927428161402    0.2944792707169839    0.2695549526368808
     0.3202416059040161    0.3716126646294313    0.3495701346648232
     0.3268793034659083    0.3894325415164701    0.2254214209153034
     0.2689823614393845    0.3227336726239969    0.2125302654825774
     0.2431481389425869    0.3972028539007937    0.2549505034344435
     0.3654860648677385    0.3127224190209006    0.4611188667398238
     0.4081171342441579    0.2464110134330824    0.4654041534605753
     0.2419029629427669    0.2010907877380106    0.2501141137985883
     0.2062284510367220    0.1829504916975324    0.1817408111875594
     0.1249808133611623    0.4557972682702811    0.3466925466256541
     0.1819256814093748    0.4059705605629986    0.3640127676657769
     0.4521605185361821    0.3262826798326373    0.1677574104232917
     0.4156989803500366    0.2560613752436183    0.1712668788452163
     0.2814270588924614    0.3627767367184589    0.5266642500432468
     0.2607863276179359    0.3497329728939462    0.4513401444342833
     0.3197671185145055    0.1923183190665654    0.1620718625772923
     0.3824282803528192    0.1541908077204823    0.1332124408088617
     0.3040349912519673    0.3322054138257968    0.3150231311571687
     0.2846695382869484    0.3620635558458929    0.2475498640354914
     0.2446703704703523    0.2926567580383264    0.3461714169823438
     0.2095002061760027    0.3226633319374699    0.3895458722739704
     0.2367791694973960    0.2334093635897005    0.3253045960611374
     0.4026744422300084    0.2868999002320223    0.4392231890360492
     0.2491364537499976    0.1815936439569654    0.2042556735111702
     0.1729508839018976    0.4496267823749633    0.3426871699278848
     0.4424748964405154    0.2893575699545181    0.1976788820088871
     0.2993714531776703    0.3602161713866394    0.4816946648647402
     0.3640968523654493    0.1987067287558730    0.1385845958866234
 
  0.00000000E+00  0.00000000E+00  0.00000000E+00
  0.00000000E+00  0.00000000E+00  0.00000000E+00
  0.00000000E+00  0.00000000E+00  0.00000000E+00
  0.00000000E+00  0.00000000E+00  0.00000000E+00
  0.00000000E+00  0.00000000E+00  0.00000000E+00
  0.00000000E+00  0.00000000E+00  0.00000000E+00
  0.00000000E+00  0.00000000E+00  0.00000000E+00
  0.00000000E+00  0.00000000E+00  0.00000000E+00
  0.00000000E+00  0.00000000E+00  0.00000000E+00
  0.00000000E+00  0.00000000E+00  0.00000000E+00
  0.00000000E+00  0.00000000E+00  0.00000000E+00
  0.00000000E+00  0.00000000E+00  0.00000000E+00
  0.00000000E+00  0.00000000E+00  0.00000000E+00
  0.00000000E+00  0.00000000E+00  0.00000000E+00
  0.00000000E+00  0.00000000E+00  0.00000000E+00
  0.00000000E+00  0.00000000E+00  0.00000000E+00
  0.00000000E+00  0.00000000E+00  0.00000000E+00
  0.00000000E+00  0.00000000E+00  0.00000000E+00
  0.00000000E+00  0.00000000E+00  0.00000000E+00
  0.00000000E+00  0.00000000E+00  0.00000000E+00
  0.00000000E+00  0.00000000E+00  0.00000000E+00
  0.00000000E+00  0.00000000E+00  0.00000000E+00
  0.00000000E+00  0.00000000E+00  0.00000000E+00
  0.00000000E+00  0.00000000E+00  0.00000000E+00
  0.00000000E+00  0.00000000E+00  0.00000000E+00
  0.00000000E+00  0.00000000E+00  0.00000000E+00
  0.00000000E+00  0.00000000E+00  0.00000000E+00
  0.00000000E+00  0.00000000E+00  0.00000000E+00
  0.00000000E+00  0.00000000E+00  0.00000000E+00
  0.00000000E+00  0.00000000E+00  0.00000000E+00
  0.00000000E+00  0.00000000E+00  0.00000000E+00
