MgO(100)                                
   1.00000000000000     
     9.0200996398999997    0.0000000000000000    0.0000000000000000
     0.0000000000000000    9.0200996398999997    0.0000000000000000
     0.0000000000000000    0.0000000000000000   27.7562999724999990
   Mg   O    C 
    26    34     8
Selective dynamics
Direct
     0.1652386227071290    0.1619220332331111    0.5309869060860208   F   F   F
     0.1979404640497506    0.4979547681911214    0.5327681989785376   F   F   F
     0.1628175702565642    0.8323076948161088    0.5309957680679105   F   F   F
     0.4787337822770112    0.1543156720998908    0.5320431540047323   F   F   F
     0.4812817998299153    0.8280777933445407    0.5344729234106751   F   F   F
     0.8473444420861398    0.1543830513509761    0.5306254633742569   F   F   F
     0.8701917224487374    0.5004710881485721    0.5296641959958066   F   F   F
     0.8382746249414623    0.8392111413932284    0.5313660935232107   F   F   F
     0.3302436150284649    0.9969091563743646    0.4538710026407742   F   F   F
     0.3386368988536788    0.3364617255055293    0.4562154279701218   F   F   F
     0.3378852000101489    0.6627626328570031    0.4561241630183304   F   F   F
     0.6640865338825250    0.0007256549271659    0.4553455455692657   F   F   F
     0.6623414247269892    0.3381773546739524    0.4494665165577132   F   F   F
     0.6614950246428748    0.6639065721122819    0.4544408412447254   F   F   F
     0.0013402415802659    0.9981432533118806    0.4530476664148466   F   F   F
     0.0049460431251518    0.3314597534041610    0.4538878092516114   F   F   F
     0.0044422086331721    0.6683845357007598    0.4542463104998617   F   F   F
     0.1666666719999981    0.1666666719999981    0.3769588469999974   F   F   F
     0.1666666719999981    0.5000000049999969    0.3769588469999974   F   F   F
     0.1666666719999981    0.8333333380000028    0.3769588469999974   F   F   F
     0.5000000049999969    0.1666666719999981    0.3769588469999974   F   F   F
     0.5000000049999969    0.5000000049999969    0.3769588469999974   F   F   F
     0.5000000049999969    0.8333333380000028    0.3769588469999974   F   F   F
     0.8333333380000028    0.1666666719999981    0.3769588469999974   F   F   F
     0.8333333380000028    0.5000000049999969    0.3769588469999974   F   F   F
     0.8333333380000028    0.8333333380000028    0.3769588469999974   F   F   F
     0.9985290082253755    0.3253809587046064    0.5312883499422441   F   F   F
     0.9990661933388481    0.6723720570831944    0.5312202692948560   F   F   F
     0.0006572607919395    0.9977222402238937    0.5307771561694423   F   F   F
     0.3264332939219514    0.3147718643156168    0.5312101542524985   F   F   F
     0.3201153485483061    0.6789907436303935    0.5301576005480015   F   F   F
     0.3263683062490017    0.9954462695545487    0.5307947632275969   F   F   F
     0.6641582590869106    0.6858956507621485    0.5349000142715852   T   T   T
     0.6665339584483334    0.0179037477109389    0.5327098432590915   F   F   F
     0.1647043342529741    0.1640021696754772    0.4531108708142852   F   F   F
     0.1670245948779083    0.4982896328799953    0.4547452359401092   F   F   F
     0.1641497980681734    0.8341658942818881    0.4525274046446697   F   F   F
     0.5033527632292945    0.1696471432818356    0.4557281207135802   F   F   F
     0.5040608580522772    0.4987124746042539    0.4504993937382551   F   F   F
     0.5014599855605653    0.8340073846432574    0.4553476352747268   F   F   F
     0.8292455992424124    0.1717485694900773    0.4556032655692590   F   F   F
     0.8311718406331963    0.4979063042329201    0.4564606127857473   F   F   F
     0.8305412887781785    0.8337692996474857    0.4550784532198335   F   F   F
     0.3333333429999996    0.0000000000000000    0.3770459590000002   F   F   F
     0.3333333429999996    0.3333333329999988    0.3770459590000002   F   F   F
     0.3333333429999996    0.6666666670000012    0.3770459590000002   F   F   F
     0.6666666770000020    0.0000000000000000    0.3770459590000002   F   F   F
     0.6666666770000020    0.3333333329999988    0.3770459590000002   F   F   F
     0.6666666770000020    0.6666666670000012    0.3770459590000002   F   F   F
     0.0000000000000000    0.0000000000000000    0.3770459590000002   F   F   F
     0.0000000000000000    0.3333333329999988    0.3770459590000002   F   F   F
     0.0000000000000000    0.6666666670000012    0.3770459590000002   F   F   F
     0.1286496670960133    0.1113105752317622    0.6625449676114314   T   T   T
     0.2974654562011523    0.4508731292120700    0.6531473844415672   T   T   T
     0.0745335061879615    0.7313377994729962    0.6549815450186145   T   T   T
     0.4974629527335495    0.1834725962560029    0.6594649378746524   T   T   T
     0.4350081538465531    0.7935070149861971    0.6609404313283278   T   T   T
     0.8410991872635947    0.3386169152330467    0.6438858223136350   T   T   T
     0.5909633890246511    0.5666640093358453    0.6027979398252228   T   T   T
     0.7758796949292233    0.9433716515527450    0.6539645620943091   T   T   T
     0.1438653327344568    0.1349402775070274    0.6223876149764394   T   T   T
     0.2435263734141557    0.4710147446944504    0.6164295676390381   T   T   T
     0.1136067908411889    0.7848185033619686    0.6197833666953585   T   T   T
     0.5033438446503382    0.1817067494037303    0.6183760460980920   T   T   T
     0.4661742210375976    0.8091239965912251    0.6211195848101525   T   T   T
     0.8143204862882172    0.2822988490224816    0.6078240881524977   T   T   T
     0.6676784494260275    0.5644860386811459    0.5662837395900198   T   T   T
     0.7983890786480714    0.8900810356726225    0.6167218186727432   T   T   T
 
  0.00000000E+00  0.00000000E+00  0.00000000E+00
  0.00000000E+00  0.00000000E+00  0.00000000E+00
  0.00000000E+00  0.00000000E+00  0.00000000E+00
  0.00000000E+00  0.00000000E+00  0.00000000E+00
  0.00000000E+00  0.00000000E+00  0.00000000E+00
  0.00000000E+00  0.00000000E+00  0.00000000E+00
  0.00000000E+00  0.00000000E+00  0.00000000E+00
  0.00000000E+00  0.00000000E+00  0.00000000E+00
  0.00000000E+00  0.00000000E+00  0.00000000E+00
  0.00000000E+00  0.00000000E+00  0.00000000E+00
  0.00000000E+00  0.00000000E+00  0.00000000E+00
  0.00000000E+00  0.00000000E+00  0.00000000E+00
  0.00000000E+00  0.00000000E+00  0.00000000E+00
  0.00000000E+00  0.00000000E+00  0.00000000E+00
  0.00000000E+00  0.00000000E+00  0.00000000E+00
  0.00000000E+00  0.00000000E+00  0.00000000E+00
  0.00000000E+00  0.00000000E+00  0.00000000E+00
  0.00000000E+00  0.00000000E+00  0.00000000E+00
  0.00000000E+00  0.00000000E+00  0.00000000E+00
  0.00000000E+00  0.00000000E+00  0.00000000E+00
  0.00000000E+00  0.00000000E+00  0.00000000E+00
  0.00000000E+00  0.00000000E+00  0.00000000E+00
  0.00000000E+00  0.00000000E+00  0.00000000E+00
  0.00000000E+00  0.00000000E+00  0.00000000E+00
  0.00000000E+00  0.00000000E+00  0.00000000E+00
  0.00000000E+00  0.00000000E+00  0.00000000E+00
  0.00000000E+00  0.00000000E+00  0.00000000E+00
  0.00000000E+00  0.00000000E+00  0.00000000E+00
  0.00000000E+00  0.00000000E+00  0.00000000E+00
  0.00000000E+00  0.00000000E+00  0.00000000E+00
  0.00000000E+00  0.00000000E+00  0.00000000E+00
  0.00000000E+00  0.00000000E+00  0.00000000E+00
  0.00000000E+00  0.00000000E+00  0.00000000E+00
  0.00000000E+00  0.00000000E+00  0.00000000E+00
  0.00000000E+00  0.00000000E+00  0.00000000E+00
  0.00000000E+00  0.00000000E+00  0.00000000E+00
  0.00000000E+00  0.00000000E+00  0.00000000E+00
  0.00000000E+00  0.00000000E+00  0.00000000E+00
  0.00000000E+00  0.00000000E+00  0.00000000E+00
  0.00000000E+00  0.00000000E+00  0.00000000E+00
  0.00000000E+00  0.00000000E+00  0.00000000E+00
  0.00000000E+00  0.00000000E+00  0.00000000E+00
  0.00000000E+00  0.00000000E+00  0.00000000E+00
  0.00000000E+00  0.00000000E+00  0.00000000E+00
  0.00000000E+00  0.00000000E+00  0.00000000E+00
  0.00000000E+00  0.00000000E+00  0.00000000E+00
  0.00000000E+00  0.00000000E+00  0.00000000E+00
  0.00000000E+00  0.00000000E+00  0.00000000E+00
  0.00000000E+00  0.00000000E+00  0.00000000E+00
  0.00000000E+00  0.00000000E+00  0.00000000E+00
  0.00000000E+00  0.00000000E+00  0.00000000E+00
  0.00000000E+00  0.00000000E+00  0.00000000E+00
  0.00000000E+00  0.00000000E+00  0.00000000E+00
  0.00000000E+00  0.00000000E+00  0.00000000E+00
  0.00000000E+00  0.00000000E+00  0.00000000E+00
  0.00000000E+00  0.00000000E+00  0.00000000E+00
  0.00000000E+00  0.00000000E+00  0.00000000E+00
  0.00000000E+00  0.00000000E+00  0.00000000E+00
  0.00000000E+00  0.00000000E+00  0.00000000E+00
  0.00000000E+00  0.00000000E+00  0.00000000E+00
  0.00000000E+00  0.00000000E+00  0.00000000E+00
  0.00000000E+00  0.00000000E+00  0.00000000E+00
  0.00000000E+00  0.00000000E+00  0.00000000E+00
  0.00000000E+00  0.00000000E+00  0.00000000E+00
  0.00000000E+00  0.00000000E+00  0.00000000E+00
  0.00000000E+00  0.00000000E+00  0.00000000E+00
  0.00000000E+00  0.00000000E+00  0.00000000E+00
  0.00000000E+00  0.00000000E+00  0.00000000E+00
