MgO(100)                                
   1.00000000000000     
     9.0200996398999997    0.0000000000000000    0.0000000000000000
     0.0000000000000000    9.0200996398999997    0.0000000000000000
     0.0000000000000000    0.0000000000000000   27.7562999724999990
   Mg   O    C 
    26    34     8
Selective dynamics
Direct
     0.1652386227071317    0.1619220332331089    0.5309869060860221   F   F   F
     0.1979404640497522    0.4979547681911193    0.5327681989785344   F   F   F
     0.1628175702565623    0.8323076948161077    0.5309957680679079   F   F   F
     0.4787337822770137    0.1543156720998890    0.5320431540047317   F   F   F
     0.4812817998299184    0.8280777933445375    0.5344729234106772   F   F   F
     0.8473444420861405    0.1543830513509727    0.5306254633742581   F   F   F
     0.8701917224487404    0.5004710881485700    0.5296641959958085   F   F   F
     0.8382746249414614    0.8392111413932256    0.5313660935232086   F   F   F
     0.3302436150284668    0.9969091563743659    0.4538710026407725   F   F   F
     0.3386368988536817    0.3364617255055283    0.4562154279701198   F   F   F
     0.3378852000101519    0.6627626328570033    0.4561241630183329   F   F   F
     0.6640865338825236    0.0007256549271679    0.4553455455692683   F   F   F
     0.6623414247269873    0.3381773546739504    0.4494665165577116   F   F   F
     0.6614950246428729    0.6639065721122847    0.4544408412447255   F   F   F
     0.0013402415802683    0.9981432533118775    0.4530476664148457   F   F   F
     0.0049460431251494    0.3314597534041586    0.4538878092516132   F   F   F
     0.0044422086331696    0.6683845357007572    0.4542463104998596   F   F   F
     0.1666666719999981    0.1666666719999981    0.3769588469999974   F   F   F
     0.1666666719999981    0.5000000049999969    0.3769588469999974   F   F   F
     0.1666666719999981    0.8333333380000028    0.3769588469999974   F   F   F
     0.5000000049999969    0.1666666719999981    0.3769588469999974   F   F   F
     0.5000000049999969    0.5000000049999969    0.3769588469999974   F   F   F
     0.5000000049999969    0.8333333380000028    0.3769588469999974   F   F   F
     0.8333333380000028    0.1666666719999981    0.3769588469999974   F   F   F
     0.8333333380000028    0.5000000049999969    0.3769588469999974   F   F   F
     0.8333333380000028    0.8333333380000028    0.3769588469999974   F   F   F
     0.9985290082253734    0.3253809587046041    0.5312883499422416   F   F   F
     0.9990661933388491    0.6723720570831913    0.5312202692948573   F   F   F
     0.0006572607919387    0.9977222402238953    0.5307771561694424   F   F   F
     0.3264332939219500    0.3147718643156143    0.5312101542525016   F   F   F
     0.3201153485483038    0.6789907436303940    0.5301576005480023   F   F   F
     0.3263683062489982    0.9954462695545511    0.5307947632275942   F   F   F
     0.6641582590869136    0.6858956507621466    0.5349000142715864   T   T   T
     0.6665339584483321    0.0179037477109419    0.5327098432590894   F   F   F
     0.1647043342529714    0.1640021696754755    0.4531108708142841   F   F   F
     0.1670245948779069    0.4982896328799972    0.4547452359401112   F   F   F
     0.1641497980681735    0.8341658942818916    0.4525274046446731   F   F   F
     0.5033527632292975    0.1696471432818356    0.4557281207135778   F   F   F
     0.5040608580522790    0.4987124746042566    0.4504993937382545   F   F   F
     0.5014599855605674    0.8340073846432562    0.4553476352747258   F   F   F
     0.8292455992424114    0.1717485694900756    0.4556032655692587   F   F   F
     0.8311718406331979    0.4979063042329229    0.4564606127857495   F   F   F
     0.8305412887781779    0.8337692996474829    0.4550784532198366   F   F   F
     0.3333333429999996    0.0000000000000000    0.3770459590000002   F   F   F
     0.3333333429999996    0.3333333329999988    0.3770459590000002   F   F   F
     0.3333333429999996    0.6666666670000012    0.3770459590000002   F   F   F
     0.6666666770000020    0.0000000000000000    0.3770459590000002   F   F   F
     0.6666666770000020    0.3333333329999988    0.3770459590000002   F   F   F
     0.6666666770000020    0.6666666670000012    0.3770459590000002   F   F   F
     0.0000000000000000    0.0000000000000000    0.3770459590000002   F   F   F
     0.0000000000000000    0.3333333329999988    0.3770459590000002   F   F   F
     0.0000000000000000    0.6666666670000012    0.3770459590000002   F   F   F
     0.1286496670960136    0.1113105752317588    0.6625449676114290   T   T   T
     0.2974654562011507    0.4508731292120709    0.6531473844415661   T   T   T
     0.0745335061879629    0.7313377994729955    0.6549815450186117   T   T   T
     0.4974629527335480    0.1834725962560033    0.6594649378746517   T   T   T
     0.4350081538465534    0.7935070149861957    0.6609404313283250   T   T   T
     0.8410991872635957    0.3386169152330494    0.6438858223136352   T   T   T
     0.5909633890246544    0.5666640093358474    0.6027979398252237   T   T   T
     0.7758796949292265    0.9433716515527437    0.6539645620943122   T   T   T
     0.1438653327344584    0.1349402775070249    0.6223876149764406   T   T   T
     0.2435263734141559    0.4710147446944495    0.6164295676390351   T   T   T
     0.1136067908411875    0.7848185033619661    0.6197833666953589   T   T   T
     0.5033438446503379    0.1817067494037294    0.6183760460980938   T   T   T
     0.4661742210375973    0.8091239965912240    0.6211195848101517   T   T   T
     0.8143204862882203    0.2822988490224804    0.6078240881524980   T   T   T
     0.6676784494260285    0.5644860386811487    0.5662837395900213   T   T   T
     0.7983890786480685    0.8900810356726196    0.6172622365243613   T   T   T
 
  0.00000000E+00  0.00000000E+00  0.00000000E+00
  0.00000000E+00  0.00000000E+00  0.00000000E+00
  0.00000000E+00  0.00000000E+00  0.00000000E+00
  0.00000000E+00  0.00000000E+00  0.00000000E+00
  0.00000000E+00  0.00000000E+00  0.00000000E+00
  0.00000000E+00  0.00000000E+00  0.00000000E+00
  0.00000000E+00  0.00000000E+00  0.00000000E+00
  0.00000000E+00  0.00000000E+00  0.00000000E+00
  0.00000000E+00  0.00000000E+00  0.00000000E+00
  0.00000000E+00  0.00000000E+00  0.00000000E+00
  0.00000000E+00  0.00000000E+00  0.00000000E+00
  0.00000000E+00  0.00000000E+00  0.00000000E+00
  0.00000000E+00  0.00000000E+00  0.00000000E+00
  0.00000000E+00  0.00000000E+00  0.00000000E+00
  0.00000000E+00  0.00000000E+00  0.00000000E+00
  0.00000000E+00  0.00000000E+00  0.00000000E+00
  0.00000000E+00  0.00000000E+00  0.00000000E+00
  0.00000000E+00  0.00000000E+00  0.00000000E+00
  0.00000000E+00  0.00000000E+00  0.00000000E+00
  0.00000000E+00  0.00000000E+00  0.00000000E+00
  0.00000000E+00  0.00000000E+00  0.00000000E+00
  0.00000000E+00  0.00000000E+00  0.00000000E+00
  0.00000000E+00  0.00000000E+00  0.00000000E+00
  0.00000000E+00  0.00000000E+00  0.00000000E+00
  0.00000000E+00  0.00000000E+00  0.00000000E+00
  0.00000000E+00  0.00000000E+00  0.00000000E+00
  0.00000000E+00  0.00000000E+00  0.00000000E+00
  0.00000000E+00  0.00000000E+00  0.00000000E+00
  0.00000000E+00  0.00000000E+00  0.00000000E+00
  0.00000000E+00  0.00000000E+00  0.00000000E+00
  0.00000000E+00  0.00000000E+00  0.00000000E+00
  0.00000000E+00  0.00000000E+00  0.00000000E+00
  0.00000000E+00  0.00000000E+00  0.00000000E+00
  0.00000000E+00  0.00000000E+00  0.00000000E+00
  0.00000000E+00  0.00000000E+00  0.00000000E+00
  0.00000000E+00  0.00000000E+00  0.00000000E+00
  0.00000000E+00  0.00000000E+00  0.00000000E+00
  0.00000000E+00  0.00000000E+00  0.00000000E+00
  0.00000000E+00  0.00000000E+00  0.00000000E+00
  0.00000000E+00  0.00000000E+00  0.00000000E+00
  0.00000000E+00  0.00000000E+00  0.00000000E+00
  0.00000000E+00  0.00000000E+00  0.00000000E+00
  0.00000000E+00  0.00000000E+00  0.00000000E+00
  0.00000000E+00  0.00000000E+00  0.00000000E+00
  0.00000000E+00  0.00000000E+00  0.00000000E+00
  0.00000000E+00  0.00000000E+00  0.00000000E+00
  0.00000000E+00  0.00000000E+00  0.00000000E+00
  0.00000000E+00  0.00000000E+00  0.00000000E+00
  0.00000000E+00  0.00000000E+00  0.00000000E+00
  0.00000000E+00  0.00000000E+00  0.00000000E+00
  0.00000000E+00  0.00000000E+00  0.00000000E+00
  0.00000000E+00  0.00000000E+00  0.00000000E+00
  0.00000000E+00  0.00000000E+00  0.00000000E+00
  0.00000000E+00  0.00000000E+00  0.00000000E+00
  0.00000000E+00  0.00000000E+00  0.00000000E+00
  0.00000000E+00  0.00000000E+00  0.00000000E+00
  0.00000000E+00  0.00000000E+00  0.00000000E+00
  0.00000000E+00  0.00000000E+00  0.00000000E+00
  0.00000000E+00  0.00000000E+00  0.00000000E+00
  0.00000000E+00  0.00000000E+00  0.00000000E+00
  0.00000000E+00  0.00000000E+00  0.00000000E+00
  0.00000000E+00  0.00000000E+00  0.00000000E+00
  0.00000000E+00  0.00000000E+00  0.00000000E+00
  0.00000000E+00  0.00000000E+00  0.00000000E+00
  0.00000000E+00  0.00000000E+00  0.00000000E+00
  0.00000000E+00  0.00000000E+00  0.00000000E+00
  0.00000000E+00  0.00000000E+00  0.00000000E+00
  0.00000000E+00  0.00000000E+00  0.00000000E+00
