Repeated-UnitCell:     2    2    1      
   1.00000000000000     
    12.0700988769999995    0.0000000000000000    0.0000000000000000
     0.0000000000000000    6.0477571486999997    0.0000000000000000
     0.0000000000000000    0.0000000000000000   25.0271492004000002
   Cu   Ga   O    C    H 
    16    16    34     2     8
Selective dynamics
Direct
  0.3207779287407959  0.2415294719720436  0.6269027001550427   F   F   F
  0.8020424605159846  0.2629515892130243  0.6375908378451243   T   T   T
  0.3230111234695983  0.7573409676690019  0.6274386140521599   F   F   F
  0.8099457507985193  0.7650009395233397  0.6246321580654239   F   F   F
  0.3725477560354591  0.0000831345450294  0.5259206607845996   F   F   F
  0.8718579409585487  0.9999390081245849  0.5277443123377310   F   F   F
  0.3765808227377505  0.4996292461631811  0.5297885721112863   F   F   F
  0.8755197040473064  0.5023780395682138  0.5321232612298132   F   F   F
  0.4366486861486649  0.2516527024216302  0.4293807316884397   F   F   F
  0.9356567429172173  0.2522206773197553  0.4291135349892343   F   F   F
  0.4365947618259582  0.7479377276281767  0.4292774792061280   F   F   F
  0.9356275337062669  0.7493460299039540  0.4292084183114824   F   F   F
  0.0000000000000000  0.0000000000000000  0.3288237154421267   F   F   F
  0.4999999999585754  0.0000000000000000  0.3288237154421267   F   F   F
  0.0000000000000000  0.4999999999421263  0.3288237154421267   F   F   F
  0.4999999999585754  0.4999999999421263  0.3288237154421267   F   F   F
  0.0599204955376109  0.0059997774899330  0.6230525963644453   F   F   F
  0.5477307376255638  0.9968589460804864  0.6227160449128419   F   F   F
  0.0782485188092323  0.5053304645190693  0.6309661736272716   T   T   T
  0.5662474465627909  0.4926002248174299  0.6355814308448231   T   T   T
  0.1248104368447329  0.2554731710817961  0.5281410253003997   F   F   F
  0.6240837132843851  0.2502939705585234  0.5290692154170387   F   F   F
  0.1251333674382735  0.7508099641870274  0.5283537000122180   F   F   F
  0.6228803241187322  0.7445559104753343  0.5287886087311762   F   F   F
  0.1874408784760817  0.0012596600675963  0.4297755083814678   F   F   F
  0.6875806665762028  0.9989000389010130  0.4300681812525298   F   F   F
  0.1888295407255072  0.5014009676031961  0.4298977147069181   F   F   F
  0.6893444371698934  0.4987943340200474  0.4303610153571285   F   F   F
  0.2499999999792877  0.2499999999710667  0.3288237154421267   F   F   F
  0.7500000000207123  0.2499999999710667  0.3288237154421267   F   F   F
  0.2499999999792877  0.7500000000785434  0.3288237154421267   F   F   F
  0.7500000000207123  0.7500000000785434  0.3288237154421267   F   F   F
  0.4657473169568576  0.2434631843125814  0.6492557691858494   F   F   F
  0.9612441371954361  0.2378241338522429  0.6538922976157124   T   T   T
  0.4691967280501501  0.7463872150217199  0.6500291475399962   F   F   F
  0.9602806591724260  0.7661350214878127  0.6502516467293091   T   T   T
  0.1663084173196694  0.2448897487858162  0.6100639514010382   F   F   F
  0.6617689670448001  0.2337197572758214  0.6047248559132399   F   F   F
  0.1671755668582549  0.7648605748465869  0.6104887437787667   F   F   F
  0.6629685065261341  0.7597888522067535  0.6046767721656110   F   F   F
  0.0207148665231571  0.0037589478842932  0.5497125223501200   F   F   F
  0.5196848524776954  0.9968076329828577  0.5448756116913458   F   F   F
  0.0258055231131920  0.5035741251425208  0.5550670824857420   F   F   F
  0.5247574854316568  0.4973253855225224  0.5487299447726883   F   F   F
  0.2224638797672611  0.0025826957903305  0.5084503783221734   F   F   F
  0.7254382189826103  0.9978817317579569  0.5063493942982333   F   F   F
  0.2259351902305298  0.5025069263339148  0.5093473692254165   F   F   F
  0.7295023114193313  0.4983444203141687  0.5074550990984434   F   F   F
  0.0843288514638800  0.2539983310131930  0.4511158799703807   F   F   F
  0.5859537202045999  0.2504558334739002  0.4493550272544766   F   F   F
  0.0843507171663518  0.7497623038956363  0.4512153393458007   F   F   F
  0.5858811146277105  0.7466802526181695  0.4492267507182106   F   F   F
  0.2860918843285205  0.2506704988078781  0.4089657286078250   F   F   F
  0.7876788769560221  0.2491259338693723  0.4077122550126830   F   F   F
  0.2860709622407711  0.7511112607697683  0.4089319607774442   F   F   F
  0.7876451481504176  0.7493407441819713  0.4077152876177408   F   F   F
  0.1483239680340489  0.0000000000000000  0.3504414856351232   F   F   F
  0.6483239531625884  0.0000000000000000  0.3504414856351232   F   F   F
  0.1483239680340489  0.4999999999421263  0.3504414856351232   F   F   F
  0.6483239531625884  0.4999999999421263  0.3504414856351232   F   F   F
  0.3516760170116342  0.0000000000000000  0.3072059154415072   F   F   F
  0.8516760468788362  0.0000000000000000  0.3072059154415072   F   F   F
  0.3516760170116342  0.4999999999421263  0.3072059154415072   F   F   F
  0.8516760468788362  0.4999999999421263  0.3072059154415072   F   F   F
  0.6756636506320817  0.4655359446879146  0.6918131521415916   T   T   T
  0.0847757861937879  0.5038516486662701  0.7069511075679387   T   T   T
  0.1879138746888955  0.5185949380667338  0.7346257365139905   T   T   T
  0.6790299106219919  0.6196062951803540  0.7343035430998412   T   T   T
  0.9700850209966916  0.7359404367947988  0.6886901505039020   T   T   T
  0.2303785850589151  0.6773486309852785  0.7269590346046968   T   T   T
  0.2458017286287983  0.3852211069651545  0.7231191552024541   T   T   T
  0.1722241859846250  0.5056774234209840  0.7778109719304851   T   T   T
  0.9830719107613959  0.2773416801713466  0.6909171888407570   T   T   T
  0.6985980364637001  0.7903780276758567  0.7206047679796868   T   T   T
  0.7438644084473012  0.5711007083131392  0.7631151268823615   T   T   T
  0.5995326143829445  0.6287908936653679  0.7560170877301999   T   T   T
 
  0.00000000E+00  0.00000000E+00  0.00000000E+00
  0.00000000E+00  0.00000000E+00  0.00000000E+00
  0.00000000E+00  0.00000000E+00  0.00000000E+00
  0.00000000E+00  0.00000000E+00  0.00000000E+00
  0.00000000E+00  0.00000000E+00  0.00000000E+00
  0.00000000E+00  0.00000000E+00  0.00000000E+00
  0.00000000E+00  0.00000000E+00  0.00000000E+00
  0.00000000E+00  0.00000000E+00  0.00000000E+00
  0.00000000E+00  0.00000000E+00  0.00000000E+00
  0.00000000E+00  0.00000000E+00  0.00000000E+00
  0.00000000E+00  0.00000000E+00  0.00000000E+00
  0.00000000E+00  0.00000000E+00  0.00000000E+00
  0.00000000E+00  0.00000000E+00  0.00000000E+00
  0.00000000E+00  0.00000000E+00  0.00000000E+00
  0.00000000E+00  0.00000000E+00  0.00000000E+00
  0.00000000E+00  0.00000000E+00  0.00000000E+00
  0.00000000E+00  0.00000000E+00  0.00000000E+00
  0.00000000E+00  0.00000000E+00  0.00000000E+00
  0.00000000E+00  0.00000000E+00  0.00000000E+00
  0.00000000E+00  0.00000000E+00  0.00000000E+00
  0.00000000E+00  0.00000000E+00  0.00000000E+00
  0.00000000E+00  0.00000000E+00  0.00000000E+00
  0.00000000E+00  0.00000000E+00  0.00000000E+00
  0.00000000E+00  0.00000000E+00  0.00000000E+00
  0.00000000E+00  0.00000000E+00  0.00000000E+00
  0.00000000E+00  0.00000000E+00  0.00000000E+00
  0.00000000E+00  0.00000000E+00  0.00000000E+00
  0.00000000E+00  0.00000000E+00  0.00000000E+00
  0.00000000E+00  0.00000000E+00  0.00000000E+00
  0.00000000E+00  0.00000000E+00  0.00000000E+00
  0.00000000E+00  0.00000000E+00  0.00000000E+00
  0.00000000E+00  0.00000000E+00  0.00000000E+00
  0.00000000E+00  0.00000000E+00  0.00000000E+00
  0.00000000E+00  0.00000000E+00  0.00000000E+00
  0.00000000E+00  0.00000000E+00  0.00000000E+00
  0.00000000E+00  0.00000000E+00  0.00000000E+00
  0.00000000E+00  0.00000000E+00  0.00000000E+00
  0.00000000E+00  0.00000000E+00  0.00000000E+00
  0.00000000E+00  0.00000000E+00  0.00000000E+00
  0.00000000E+00  0.00000000E+00  0.00000000E+00
  0.00000000E+00  0.00000000E+00  0.00000000E+00
  0.00000000E+00  0.00000000E+00  0.00000000E+00
  0.00000000E+00  0.00000000E+00  0.00000000E+00
  0.00000000E+00  0.00000000E+00  0.00000000E+00
  0.00000000E+00  0.00000000E+00  0.00000000E+00
  0.00000000E+00  0.00000000E+00  0.00000000E+00
  0.00000000E+00  0.00000000E+00  0.00000000E+00
  0.00000000E+00  0.00000000E+00  0.00000000E+00
  0.00000000E+00  0.00000000E+00  0.00000000E+00
  0.00000000E+00  0.00000000E+00  0.00000000E+00
  0.00000000E+00  0.00000000E+00  0.00000000E+00
  0.00000000E+00  0.00000000E+00  0.00000000E+00
  0.00000000E+00  0.00000000E+00  0.00000000E+00
  0.00000000E+00  0.00000000E+00  0.00000000E+00
  0.00000000E+00  0.00000000E+00  0.00000000E+00
  0.00000000E+00  0.00000000E+00  0.00000000E+00
  0.00000000E+00  0.00000000E+00  0.00000000E+00
  0.00000000E+00  0.00000000E+00  0.00000000E+00
  0.00000000E+00  0.00000000E+00  0.00000000E+00
  0.00000000E+00  0.00000000E+00  0.00000000E+00
  0.00000000E+00  0.00000000E+00  0.00000000E+00
  0.00000000E+00  0.00000000E+00  0.00000000E+00
  0.00000000E+00  0.00000000E+00  0.00000000E+00
  0.00000000E+00  0.00000000E+00  0.00000000E+00
  0.00000000E+00  0.00000000E+00  0.00000000E+00
  0.00000000E+00  0.00000000E+00  0.00000000E+00
  0.00000000E+00  0.00000000E+00  0.00000000E+00
  0.00000000E+00  0.00000000E+00  0.00000000E+00
  0.00000000E+00  0.00000000E+00  0.00000000E+00
  0.00000000E+00  0.00000000E+00  0.00000000E+00
  0.00000000E+00  0.00000000E+00  0.00000000E+00
  0.00000000E+00  0.00000000E+00  0.00000000E+00
  0.00000000E+00  0.00000000E+00  0.00000000E+00
  0.00000000E+00  0.00000000E+00  0.00000000E+00
  0.00000000E+00  0.00000000E+00  0.00000000E+00
  0.00000000E+00  0.00000000E+00  0.00000000E+00
