Repeated-UnitCell:     2    2    1      
   1.00000000000000     
    12.0700988769999995    0.0000000000000000    0.0000000000000000
     0.0000000000000000    6.0477571486999997    0.0000000000000000
     0.0000000000000000    0.0000000000000000   25.0271492004000002
   Cu   Ga   O    C    H 
    16    16    34     2     8
Selective dynamics
Direct
     0.3207779287407961    0.2415294719720412    0.6269027001550441   F   F   F
     0.8020424605159870    0.2629515892130244    0.6375908378451269   T   T   T
     0.3230111234695998    0.7573409676690027    0.6274386140521586   F   F   F
     0.8099457507985224    0.7650009395233403    0.6246321580654252   F   F   F
     0.3725477560354596    0.0000831345450287    0.5259206607846022   F   F   F
     0.8718579409585505    0.9999390081245824    0.5277443123377306   F   F   F
     0.3765808227377524    0.4996292461631837    0.5297885721112841   F   F   F
     0.8755197040473044    0.5023780395682138    0.5321232612298150   F   F   F
     0.4366486861486629    0.2516527024216334    0.4293807316884380   F   F   F
     0.9356567429172169    0.2522206773197583    0.4291135349892320   F   F   F
     0.4365947618259615    0.7479377276281766    0.4292774792061308   F   F   F
     0.9356275337062638    0.7493460299039568    0.4292084183114847   F   F   F
     0.0000000000000000    0.0000000000000000    0.3288237154421267   F   F   F
     0.4999999999585754    0.0000000000000000    0.3288237154421267   F   F   F
     0.0000000000000000    0.4999999999421263    0.3288237154421267   F   F   F
     0.4999999999585754    0.4999999999421263    0.3288237154421267   F   F   F
     0.0599204955376113    0.0059997774899349    0.6230525963644434   F   F   F
     0.5477307376255618    0.9968589460804845    0.6227160449128452   F   F   F
     0.0782485188092337    0.5053304645190669    0.6309661736272711   T   T   T
     0.5662474465627881    0.4926002248174318    0.6355814308448203   T   T   T
     0.1248104368447333    0.2554731710817977    0.5281410253003989   F   F   F
     0.6240837132843846    0.2502939705585254    0.5290692154170374   F   F   F
     0.1251333674382708    0.7508099641870272    0.5283537000122187   F   F   F
     0.6228803241187293    0.7445559104753342    0.5287886087311733   F   F   F
     0.1874408784760823    0.0012596600675936    0.4297755083814691   F   F   F
     0.6875806665761993    0.9989000389010106    0.4300681812525326   F   F   F
     0.1888295407255096    0.5014009676031949    0.4298977147069185   F   F   F
     0.6893444371698967    0.4987943340200451    0.4303610153571292   F   F   F
     0.2499999999792877    0.2499999999710667    0.3288237154421267   F   F   F
     0.7500000000207123    0.2499999999710667    0.3288237154421267   F   F   F
     0.2499999999792877    0.7500000000785434    0.3288237154421267   F   F   F
     0.7500000000207123    0.7500000000785434    0.3288237154421267   F   F   F
     0.4657473169568592    0.2434631843125833    0.6492557691858492   F   F   F
     0.9612441371954353    0.2378241338522455    0.6538922976157103   T   T   T
     0.4691967280501491    0.7463872150217215    0.6500291475399937   F   F   F
     0.9602806591724279    0.7661350214878123    0.6502516467293067   T   T   T
     0.1663084173196670    0.2448897487858139    0.6100639514010369   F   F   F
     0.6617689670448034    0.2337197572758184    0.6047248559132395   F   F   F
     0.1671755668582531    0.7648605748465902    0.6104887437787674   F   F   F
     0.6629685065261328    0.7597888522067516    0.6046767721656107   F   F   F
     0.0207148665231542    0.0037589478842950    0.5497125223501231   F   F   F
     0.5196848524776971    0.9968076329828560    0.5448756116913480   F   F   F
     0.0258055231131927    0.5035741251425174    0.5550670824857435   F   F   F
     0.5247574854316571    0.4973253855225238    0.5487299447726887   F   F   F
     0.2224638797672621    0.0025826957903280    0.5084503783221708   F   F   F
     0.7254382189826117    0.9978817317579547    0.5063493942982326   F   F   F
     0.2259351902305273    0.5025069263339172    0.5093473692254152   F   F   F
     0.7295023114193285    0.4983444203141673    0.5074550990984468   F   F   F
     0.0843288514638818    0.2539983310131953    0.4511158799703786   F   F   F
     0.5859537202046032    0.2504558334739012    0.4493550272544732   F   F   F
     0.0843507171663483    0.7497623038956327    0.4512153393457993   F   F   F
     0.5858811146277121    0.7466802526181709    0.4492267507182134   F   F   F
     0.2860918843285195    0.2506704988078815    0.4089657286078278   F   F   F
     0.7876788769560250    0.2491259338693712    0.4077122550126821   F   F   F
     0.2860709622407680    0.7511112607697683    0.4089319607774429   F   F   F
     0.7876451481504176    0.7493407441819736    0.4077152876177405   F   F   F
     0.1483239680340489    0.0000000000000000    0.3504414856351232   F   F   F
     0.6483239531625884    0.0000000000000000    0.3504414856351232   F   F   F
     0.1483239680340489    0.4999999999421263    0.3504414856351232   F   F   F
     0.6483239531625884    0.4999999999421263    0.3504414856351232   F   F   F
     0.3516760170116342    0.0000000000000000    0.3072059154415072   F   F   F
     0.8516760468788362    0.0000000000000000    0.3072059154415072   F   F   F
     0.3516760170116342    0.4999999999421263    0.3072059154415072   F   F   F
     0.8516760468788362    0.4999999999421263    0.3072059154415072   F   F   F
     0.6756636506320800    0.4655359446879131    0.6918131521415927   T   T   T
     0.0847757861937859    0.5038516486662674    0.7069511075679410   T   T   T
     0.1879138746888973    0.5185949380667306    0.7346257365139884   T   T   T
     0.6790299106219946    0.6196062951803570    0.7343035430998386   T   T   T
     0.9700850209966937    0.7359404367947977    0.6886901505039026   T   T   T
     0.2303785850589131    0.6773486309852790    0.7269590346046947   T   T   T
     0.2458017286287988    0.3852211069651544    0.7231191552024536   T   T   T
     0.1722241859846274    0.5056774234209828    0.7778109719304854   T   T   T
     0.9830719107613984    0.2773416801713479    0.6909171888407564   T   T   T
     0.6985980364636981    0.7903780276758535    0.7206047679796900   T   T   T
     0.7438644084473022    0.5711007083131372    0.7631151268823648   T   T   T
     0.5995326143829460    0.6287908936653676    0.7560170877301966   T   T   T
 
  0.00000000E+00  0.00000000E+00  0.00000000E+00
  0.00000000E+00  0.00000000E+00  0.00000000E+00
  0.00000000E+00  0.00000000E+00  0.00000000E+00
  0.00000000E+00  0.00000000E+00  0.00000000E+00
  0.00000000E+00  0.00000000E+00  0.00000000E+00
  0.00000000E+00  0.00000000E+00  0.00000000E+00
  0.00000000E+00  0.00000000E+00  0.00000000E+00
  0.00000000E+00  0.00000000E+00  0.00000000E+00
  0.00000000E+00  0.00000000E+00  0.00000000E+00
  0.00000000E+00  0.00000000E+00  0.00000000E+00
  0.00000000E+00  0.00000000E+00  0.00000000E+00
  0.00000000E+00  0.00000000E+00  0.00000000E+00
  0.00000000E+00  0.00000000E+00  0.00000000E+00
  0.00000000E+00  0.00000000E+00  0.00000000E+00
  0.00000000E+00  0.00000000E+00  0.00000000E+00
  0.00000000E+00  0.00000000E+00  0.00000000E+00
  0.00000000E+00  0.00000000E+00  0.00000000E+00
  0.00000000E+00  0.00000000E+00  0.00000000E+00
  0.00000000E+00  0.00000000E+00  0.00000000E+00
  0.00000000E+00  0.00000000E+00  0.00000000E+00
  0.00000000E+00  0.00000000E+00  0.00000000E+00
  0.00000000E+00  0.00000000E+00  0.00000000E+00
  0.00000000E+00  0.00000000E+00  0.00000000E+00
  0.00000000E+00  0.00000000E+00  0.00000000E+00
  0.00000000E+00  0.00000000E+00  0.00000000E+00
  0.00000000E+00  0.00000000E+00  0.00000000E+00
  0.00000000E+00  0.00000000E+00  0.00000000E+00
  0.00000000E+00  0.00000000E+00  0.00000000E+00
  0.00000000E+00  0.00000000E+00  0.00000000E+00
  0.00000000E+00  0.00000000E+00  0.00000000E+00
  0.00000000E+00  0.00000000E+00  0.00000000E+00
  0.00000000E+00  0.00000000E+00  0.00000000E+00
  0.00000000E+00  0.00000000E+00  0.00000000E+00
  0.00000000E+00  0.00000000E+00  0.00000000E+00
  0.00000000E+00  0.00000000E+00  0.00000000E+00
  0.00000000E+00  0.00000000E+00  0.00000000E+00
  0.00000000E+00  0.00000000E+00  0.00000000E+00
  0.00000000E+00  0.00000000E+00  0.00000000E+00
  0.00000000E+00  0.00000000E+00  0.00000000E+00
  0.00000000E+00  0.00000000E+00  0.00000000E+00
  0.00000000E+00  0.00000000E+00  0.00000000E+00
  0.00000000E+00  0.00000000E+00  0.00000000E+00
  0.00000000E+00  0.00000000E+00  0.00000000E+00
  0.00000000E+00  0.00000000E+00  0.00000000E+00
  0.00000000E+00  0.00000000E+00  0.00000000E+00
  0.00000000E+00  0.00000000E+00  0.00000000E+00
  0.00000000E+00  0.00000000E+00  0.00000000E+00
  0.00000000E+00  0.00000000E+00  0.00000000E+00
  0.00000000E+00  0.00000000E+00  0.00000000E+00
  0.00000000E+00  0.00000000E+00  0.00000000E+00
  0.00000000E+00  0.00000000E+00  0.00000000E+00
  0.00000000E+00  0.00000000E+00  0.00000000E+00
  0.00000000E+00  0.00000000E+00  0.00000000E+00
  0.00000000E+00  0.00000000E+00  0.00000000E+00
  0.00000000E+00  0.00000000E+00  0.00000000E+00
  0.00000000E+00  0.00000000E+00  0.00000000E+00
  0.00000000E+00  0.00000000E+00  0.00000000E+00
  0.00000000E+00  0.00000000E+00  0.00000000E+00
  0.00000000E+00  0.00000000E+00  0.00000000E+00
  0.00000000E+00  0.00000000E+00  0.00000000E+00
  0.00000000E+00  0.00000000E+00  0.00000000E+00
  0.00000000E+00  0.00000000E+00  0.00000000E+00
  0.00000000E+00  0.00000000E+00  0.00000000E+00
  0.00000000E+00  0.00000000E+00  0.00000000E+00
  0.00000000E+00  0.00000000E+00  0.00000000E+00
  0.00000000E+00  0.00000000E+00  0.00000000E+00
  0.00000000E+00  0.00000000E+00  0.00000000E+00
  0.00000000E+00  0.00000000E+00  0.00000000E+00
  0.00000000E+00  0.00000000E+00  0.00000000E+00
  0.00000000E+00  0.00000000E+00  0.00000000E+00
  0.00000000E+00  0.00000000E+00  0.00000000E+00
  0.00000000E+00  0.00000000E+00  0.00000000E+00
  0.00000000E+00  0.00000000E+00  0.00000000E+00
  0.00000000E+00  0.00000000E+00  0.00000000E+00
  0.00000000E+00  0.00000000E+00  0.00000000E+00
  0.00000000E+00  0.00000000E+00  0.00000000E+00
