surf111_2x2                             
   3.82394000000000     
     2.0000000000000000    0.0000000000000000    0.0000000000000000
    -1.0000000000000000    1.7320508075688701    0.0000000000000000
     0.0000000000000000    0.0000000000000000    5.9521100000000002
   Ce   O    C 
    16    35     2
Selective dynamics
Direct
  0.8279101975325673  0.6594313272527330  0.4446279413523513   F   F   F
  0.6689614697874049  0.8326075045270755  0.3086781771522027   F   F   F
  0.3461392891280539  0.1577967875885449  0.4545101820064161   F   F   F
  0.8172116202809150  0.1540443801602152  0.4482983053382057   F   F   F
  0.3336047425354067  0.6791796627739188  0.4424344058672887   F   F   F
  0.1643023576545986  0.8339023795776797  0.3089120777764478   F   F   F
  0.6670911053545510  0.3335473865866518  0.3093574020399643   F   F   F
  0.1676554822488328  0.3316000955115186  0.3017831487609968   F   F   F
  0.5017088315731684  0.5010545300428788  0.1701616347484958   F   F   F
  0.9992183974760565  0.5007886600080838  0.1699363249157742   F   F   F
  0.4999687542445415  0.0000400869606025  0.1704842385828940   F   F   F
  0.9989536523690532  0.9982997328989569  0.1701611736034536   F   F   F
  0.3333299999999966  0.6666700000000034  0.0343000000000018   F   F   F
  0.3333299999999966  0.1666700000000034  0.0343000000000018   F   F   F
  0.8333299999999966  0.1666700000000034  0.0343000000000018   F   F   F
  0.8333299999999966  0.6666700000000034  0.0343000000000018   F   F   F
  0.4960301594544561  0.9765664025246323  0.4824354087115594   F   F   F
  0.0154297825263257  0.0389395193533844  0.4696500641400618   F   F   F
  0.0178957474523997  0.4731077588990047  0.4684870420921214   F   F   F
  0.4389510819819193  0.4750900641003142  0.4569486262528315   F   F   F
  0.6583023869536788  0.3124999298262310  0.4085979550425591   F   F   F
  0.1727212304691648  0.8380746418424110  0.4090338868286665   F   F   F
  0.6631828953720955  0.8397515690663866  0.4060057877974899   F   F   F
  0.3186744216689235  0.6445953520528391  0.3430974374092841   F   F   F
  0.8320880730431810  0.6634055241849737  0.3412174707809115   F   F   F
  0.8676431564234122  0.1828242884413100  0.3461109266372233   F   F   F
  0.3178137136456698  0.1770097315101395  0.3434929008028007   F   F   F
  0.5050381297229762  0.5034391460683807  0.2712595805724334   F   F   F
  0.9967996472852860  0.5008385070327037  0.2717768751724421   F   F   F
  0.5033212359515247  0.0011627462102624  0.2792263012365837   F   F   F
  0.9953324747562036  0.9935790550378911  0.2708231124471325   F   F   F
  0.6637808665735108  0.8362273662493962  0.2032846006674873   F   F   F
  0.1711545471936162  0.8331780353948304  0.2050284133046603   F   F   F
  0.6668317103074628  0.3288538600539468  0.2050301742601803   F   F   F
  0.1653959360599799  0.3346143102624666  0.2032908846072630   F   F   F
  0.8334216867785003  0.6665822998321929  0.1357079856696259   F   F   F
  0.3328686673590866  0.6661851373959493  0.1348341273509348   F   F   F
  0.8338207286406529  0.1671365060217909  0.1348336967003050   F   F   F
  0.3332323739510628  0.1667719552352764  0.1354336807606060   F   F   F
  0.4999999999999858  0.0000000000000000  0.0686000000000035   F   F   F
  0.5000000000000000  0.5000000000000000  0.0686000000000035   F   F   F
  0.0000000000000000  0.5000000000000000  0.0686000000000035   F   F   F
  0.0000000000000000  0.0000000000000000  0.0686000000000035   F   F   F
  0.6666700000000034  0.3333299999999966  0.0000000000000000   F   F   F
  0.6666700000000034  0.8333299999999966  0.0000000000000000   F   F   F
  0.1666700000000176  0.8333299999999966  0.0000000000000000   F   F   F
  0.1666700000000034  0.3333299999999966  0.0000000000000000   F   F   F
  0.9388246717797273  0.6428230898186413  0.6269693688602942   T   T   T
  0.8985199626014406  0.1144954958451407  0.6236174359328359   T   T   T
  0.5790331542090854  0.3233275006317697  0.5389240641119457   T   T   T
  0.3934527391861664  0.2215866843618670  0.5578422798660796   T   T   T
  0.8641161307746899  0.1374424020762817  0.5769144201205805   T   T   T
  0.9164232212802118  0.6736751087447672  0.5791833490360255   T   T   T
 
  0.00000000E+00  0.00000000E+00  0.00000000E+00
  0.00000000E+00  0.00000000E+00  0.00000000E+00
  0.00000000E+00  0.00000000E+00  0.00000000E+00
  0.00000000E+00  0.00000000E+00  0.00000000E+00
  0.00000000E+00  0.00000000E+00  0.00000000E+00
  0.00000000E+00  0.00000000E+00  0.00000000E+00
  0.00000000E+00  0.00000000E+00  0.00000000E+00
  0.00000000E+00  0.00000000E+00  0.00000000E+00
  0.00000000E+00  0.00000000E+00  0.00000000E+00
  0.00000000E+00  0.00000000E+00  0.00000000E+00
  0.00000000E+00  0.00000000E+00  0.00000000E+00
  0.00000000E+00  0.00000000E+00  0.00000000E+00
  0.00000000E+00  0.00000000E+00  0.00000000E+00
  0.00000000E+00  0.00000000E+00  0.00000000E+00
  0.00000000E+00  0.00000000E+00  0.00000000E+00
  0.00000000E+00  0.00000000E+00  0.00000000E+00
  0.00000000E+00  0.00000000E+00  0.00000000E+00
  0.00000000E+00  0.00000000E+00  0.00000000E+00
  0.00000000E+00  0.00000000E+00  0.00000000E+00
  0.00000000E+00  0.00000000E+00  0.00000000E+00
  0.00000000E+00  0.00000000E+00  0.00000000E+00
  0.00000000E+00  0.00000000E+00  0.00000000E+00
  0.00000000E+00  0.00000000E+00  0.00000000E+00
  0.00000000E+00  0.00000000E+00  0.00000000E+00
  0.00000000E+00  0.00000000E+00  0.00000000E+00
  0.00000000E+00  0.00000000E+00  0.00000000E+00
  0.00000000E+00  0.00000000E+00  0.00000000E+00
  0.00000000E+00  0.00000000E+00  0.00000000E+00
  0.00000000E+00  0.00000000E+00  0.00000000E+00
  0.00000000E+00  0.00000000E+00  0.00000000E+00
  0.00000000E+00  0.00000000E+00  0.00000000E+00
  0.00000000E+00  0.00000000E+00  0.00000000E+00
  0.00000000E+00  0.00000000E+00  0.00000000E+00
  0.00000000E+00  0.00000000E+00  0.00000000E+00
  0.00000000E+00  0.00000000E+00  0.00000000E+00
  0.00000000E+00  0.00000000E+00  0.00000000E+00
  0.00000000E+00  0.00000000E+00  0.00000000E+00
  0.00000000E+00  0.00000000E+00  0.00000000E+00
  0.00000000E+00  0.00000000E+00  0.00000000E+00
  0.00000000E+00  0.00000000E+00  0.00000000E+00
  0.00000000E+00  0.00000000E+00  0.00000000E+00
  0.00000000E+00  0.00000000E+00  0.00000000E+00
  0.00000000E+00  0.00000000E+00  0.00000000E+00
  0.00000000E+00  0.00000000E+00  0.00000000E+00
  0.00000000E+00  0.00000000E+00  0.00000000E+00
  0.00000000E+00  0.00000000E+00  0.00000000E+00
  0.00000000E+00  0.00000000E+00  0.00000000E+00
  0.00000000E+00  0.00000000E+00  0.00000000E+00
  0.00000000E+00  0.00000000E+00  0.00000000E+00
  0.00000000E+00  0.00000000E+00  0.00000000E+00
  0.00000000E+00  0.00000000E+00  0.00000000E+00
  0.00000000E+00  0.00000000E+00  0.00000000E+00
  0.00000000E+00  0.00000000E+00  0.00000000E+00
