surf111_2x2                             
   3.82394000000000     
     2.0000000000000000    0.0000000000000000    0.0000000000000000
    -1.0000000000000000    1.7320508075688701    0.0000000000000000
     0.0000000000000000    0.0000000000000000    5.9521100000000002
   Ce   O    C 
    16    35     2
Selective dynamics
Direct
  0.8279101975325664  0.6594313272527342  0.4446279413523526   F   F   F
  0.6689614697874030  0.8326075045270781  0.3086781771522005   F   F   F
  0.3461392891280570  0.1577967875885442  0.4545101820064177   F   F   F
  0.8172116202809157  0.1540443801602150  0.4482983053382039   F   F   F
  0.3336047425354060  0.6791796627739191  0.4424344058672855   F   F   F
  0.1643023576546005  0.8339023795776795  0.3089120777764476   F   F   F
  0.6670911053545494  0.3335473865866507  0.3093574020399608   F   F   F
  0.1676554822488300  0.3316000955115173  0.3017831487609948   F   F   F
  0.5017088315731684  0.5010545300428788  0.1701616347484958   F   F   F
  0.9992183974760548  0.5007886600080838  0.1699363249157742   F   F   F
  0.4999687542445405  0.0000400869606025  0.1704842385828940   F   F   F
  0.9989536523690531  0.9982997328989569  0.1701611736034536   F   F   F
  0.3333299999999966  0.6666700000000034  0.0343000000000018   F   F   F
  0.3333299999999964  0.1666700000000034  0.0343000000000018   F   F   F
  0.8333299999999960  0.1666700000000034  0.0343000000000018   F   F   F
  0.8333299999999964  0.6666700000000034  0.0343000000000018   F   F   F
  0.4960301594544543  0.9765664025246319  0.4824354087115579   F   F   F
  0.0154297825263249  0.0389395193533861  0.4696500641400653   F   F   F
  0.0178957474523995  0.4731077588990024  0.4684870420921207   F   F   F
  0.4389510819819180  0.4750900641003167  0.4569486262528296   F   F   F
  0.6583023869536804  0.3124999298262330  0.4085979550425585   F   F   F
  0.1727212304691636  0.8380746418424078  0.4090338868286645   F   F   F
  0.6631828953720943  0.8397515690663866  0.4060057877974931   F   F   F
  0.3186744216689218  0.6445953520528407  0.3430974374092863   F   F   F
  0.8320880730431797  0.6634055241849733  0.3412174707809137   F   F   F
  0.8676431564234152  0.1828242884413105  0.3461109266372211   F   F   F
  0.3178137136456667  0.1770097315101401  0.3434929008028010   F   F   F
  0.5050381297229739  0.5034391460683827  0.2712595805724325   F   F   F
  0.9967996472852882  0.5008385070327055  0.2717768751724388   F   F   F
  0.5033212359515267  0.0011627462102644  0.2792263012365845   F   F   F
  0.9953324747562046  0.9935790550378946  0.2708231124471311   F   F   F
  0.6637808665735108  0.8362273662493962  0.2032846006674873   F   F   F
  0.1711545471936164  0.8331780353948304  0.2050284133046602   F   F   F
  0.6668317103074628  0.3288538600539468  0.2050301742601803   F   F   F
  0.1653959360599799  0.3346143102624665  0.2032908846072630   F   F   F
  0.8334216867784998  0.6665822998321929  0.1357079856696259   F   F   F
  0.3328686673590866  0.6661851373959493  0.1348341273509348   F   F   F
  0.8338207286406523  0.1671365060217909  0.1348336967003050   F   F   F
  0.3332323739510624  0.1667719552352764  0.1354336807606060   F   F   F
  0.4999999999999849  0.0000000000000000  0.0686000000000035   F   F   F
  0.4999999999999997  0.5000000000000000  0.0686000000000035   F   F   F
  0.0000000000000004  0.5000000000000000  0.0686000000000035   F   F   F
  0.0000000000000000  0.0000000000000000  0.0686000000000035   F   F   F
  0.6666700000000029  0.3333299999999966  0.0000000000000000   F   F   F
  0.6666700000000032  0.8333299999999964  0.0000000000000000   F   F   F
  0.1666700000000181  0.8333299999999964  0.0000000000000000   F   F   F
  0.1666700000000034  0.3333299999999966  0.0000000000000000   F   F   F
  0.9388246717797244  0.6428230898186430  0.6269693688602940   T   T   T
  0.8985199626014383  0.1144954958451393  0.6236174359328344   T   T   T
  0.5790331542090819  0.3233275006317698  0.5389240641119425   T   T   T
  0.3934527391861691  0.2215866843618666  0.5578422798660786   T   T   T
  0.8641161307746874  0.1374424020762811  0.5769144201205810   T   T   T
  0.9164232212802106  0.6736751087447677  0.5798423851913033   T   T   T
 
             NaN             NaN             NaN
             NaN             NaN             NaN
             NaN             NaN             NaN
             NaN             NaN             NaN
             NaN             NaN             NaN
             NaN             NaN             NaN
             NaN             NaN             NaN
             NaN             NaN             NaN
             NaN             NaN             NaN
             NaN             NaN             NaN
             NaN             NaN             NaN
             NaN             NaN             NaN
             NaN             NaN             NaN
             NaN             NaN             NaN
             NaN             NaN             NaN
             NaN             NaN             NaN
             NaN             NaN             NaN
             NaN             NaN             NaN
             NaN             NaN             NaN
             NaN             NaN             NaN
             NaN             NaN             NaN
             NaN             NaN             NaN
             NaN             NaN             NaN
             NaN             NaN             NaN
             NaN             NaN             NaN
             NaN             NaN             NaN
             NaN             NaN             NaN
             NaN             NaN             NaN
             NaN             NaN             NaN
             NaN             NaN             NaN
             NaN             NaN             NaN
             NaN             NaN             NaN
             NaN             NaN             NaN
             NaN             NaN             NaN
             NaN             NaN             NaN
             NaN             NaN             NaN
             NaN             NaN             NaN
             NaN             NaN             NaN
             NaN             NaN             NaN
             NaN             NaN             NaN
             NaN             NaN             NaN
             NaN             NaN             NaN
             NaN             NaN             NaN
             NaN             NaN             NaN
             NaN             NaN             NaN
             NaN             NaN             NaN
             NaN             NaN             NaN
             NaN             NaN             NaN
             NaN             NaN             NaN
             NaN             NaN             NaN
             NaN             NaN             NaN
             NaN             NaN             NaN
             NaN             NaN             NaN
