CeO2 2x2                                
   3.81394000000000     
     2.0000000000000000    0.0000000000000000    0.0000000000000000
     1.0000000000000000    1.7320508075700001    0.0000000000000000
     0.0000000000000000    0.0000000000000000    5.2114018308699999
   Ce   O    C 
    12    28     3
Selective dynamics
Direct
  0.0039208566158493  0.9921821696962141  0.5414975166324822   F   F   F
  0.6674201151189720  0.1643849368725867  0.3857784676250446   F   F   F
  0.6687738120366760  0.6624613015952576  0.3837292798260776   F   F   F
  0.5096766623808193  0.9806710567521577  0.5393668918902321   F   F   F
  0.9918548895024415  0.4964205899097465  0.5429056457772035   F   F   F
  0.5117458573253657  0.4964201200630782  0.5429045921862041   F   F   F
  0.1682040133459566  0.1643846724235232  0.3857787424472718   F   F   F
  0.1692418590121747  0.6615237378208008  0.3862380268844916   F   F   F
  0.3333333244392449  0.3333333511215031  0.2299844838101706   F   F   F
  0.8333333244392307  0.3333333511215031  0.2299844838101706   F   F   F
  0.3333333255318678  0.8333333489362431  0.2299844838101706   F   F   F
  0.8333333255318678  0.8333333489362431  0.2299844838101706   F   F   F
  0.3446986086852917  0.3106183205372020  0.5869792796326649   F   F   F
  0.8365136876707666  0.3269979385468460  0.5766742148770305   F   F   F
  0.3388169357633544  0.8315577406525492  0.5741173053055491   F   F   F
  0.8296499852018968  0.8315635970319519  0.5741198373119545   F   F   F
  0.1708764943476808  0.1684477735927246  0.5015340599538760   F   F   F
  0.6606935663599671  0.1684497639116884  0.5015346989272018   F   F   F
  0.1762683845008084  0.6474812282053435  0.5055732982264303   F   F   F
  0.6718365097225032  0.6563524653543453  0.5014753759423698   F   F   F
  0.0039900382130398  0.9920303970958031  0.4278306046956573   F   F   F
  0.5044026354772768  0.9912072591649874  0.4246861040938583   F   F   F
  0.9989626964586833  0.4991202528194592  0.4239771783377435   F   F   F
  0.5019287439547142  0.4991204979870716  0.4239767947625026   F   F   F
  0.3349597165518290  0.3300867260675133  0.3464044409287226   F   F   F
  0.8359484971674291  0.3281112482285735  0.3457791360044595   F   F   F
  0.3323110380086547  0.8326999474845422  0.3453895575000914   F   F   F
  0.8349940880753479  0.8326998462138349  0.3453894639477539   F   F   F
  0.1666666766533851  0.1666666466932369  0.2693445574826612   F   F   F
  0.6666666766533851  0.1666666466932369  0.2693445574826612   F   F   F
  0.1666666777459938  0.6666666445079841  0.2693445574826612   F   F   F
  0.6666666777459938  0.6666666445079841  0.2693445574826612   F   F   F
  0.0000000000000000  0.0000000000000000  0.1918869495106748   F   F   F
  0.5000000000000000  0.0000000000000000  0.1918869495106748   F   F   F
  0.0000000010926300  0.4999999978147471  0.1918869495106748   F   F   F
  0.5000000010926158  0.4999999978147471  0.1918869495106748   F   F   F
  0.9964801687521359  0.0072972009329249  0.7449598454581832   T   T   T
  0.5430111077623607  0.9140466955784703  0.7454473141835436   T   T   T
  0.4103203011146164  0.4781860000715881  0.6635528087965312   T   T   T
  0.1115263687074943  0.4781859987672163  0.6635573781400552   T   T   T
  0.0016944660553975  0.9967888217295453  0.6883338510155710   T   T   T
  0.5243909409600320  0.9512705869198541  0.6900331521533545   T   T   T
  0.2872817270168751  0.4254640519305825  0.6432357486999388   T   T   T
 
  0.00000000E+00  0.00000000E+00  0.00000000E+00
  0.00000000E+00  0.00000000E+00  0.00000000E+00
  0.00000000E+00  0.00000000E+00  0.00000000E+00
  0.00000000E+00  0.00000000E+00  0.00000000E+00
  0.00000000E+00  0.00000000E+00  0.00000000E+00
  0.00000000E+00  0.00000000E+00  0.00000000E+00
  0.00000000E+00  0.00000000E+00  0.00000000E+00
  0.00000000E+00  0.00000000E+00  0.00000000E+00
  0.00000000E+00  0.00000000E+00  0.00000000E+00
  0.00000000E+00  0.00000000E+00  0.00000000E+00
  0.00000000E+00  0.00000000E+00  0.00000000E+00
  0.00000000E+00  0.00000000E+00  0.00000000E+00
  0.00000000E+00  0.00000000E+00  0.00000000E+00
  0.00000000E+00  0.00000000E+00  0.00000000E+00
  0.00000000E+00  0.00000000E+00  0.00000000E+00
  0.00000000E+00  0.00000000E+00  0.00000000E+00
  0.00000000E+00  0.00000000E+00  0.00000000E+00
  0.00000000E+00  0.00000000E+00  0.00000000E+00
  0.00000000E+00  0.00000000E+00  0.00000000E+00
  0.00000000E+00  0.00000000E+00  0.00000000E+00
  0.00000000E+00  0.00000000E+00  0.00000000E+00
  0.00000000E+00  0.00000000E+00  0.00000000E+00
  0.00000000E+00  0.00000000E+00  0.00000000E+00
  0.00000000E+00  0.00000000E+00  0.00000000E+00
  0.00000000E+00  0.00000000E+00  0.00000000E+00
  0.00000000E+00  0.00000000E+00  0.00000000E+00
  0.00000000E+00  0.00000000E+00  0.00000000E+00
  0.00000000E+00  0.00000000E+00  0.00000000E+00
  0.00000000E+00  0.00000000E+00  0.00000000E+00
  0.00000000E+00  0.00000000E+00  0.00000000E+00
  0.00000000E+00  0.00000000E+00  0.00000000E+00
  0.00000000E+00  0.00000000E+00  0.00000000E+00
  0.00000000E+00  0.00000000E+00  0.00000000E+00
  0.00000000E+00  0.00000000E+00  0.00000000E+00
  0.00000000E+00  0.00000000E+00  0.00000000E+00
  0.00000000E+00  0.00000000E+00  0.00000000E+00
  0.00000000E+00  0.00000000E+00  0.00000000E+00
  0.00000000E+00  0.00000000E+00  0.00000000E+00
  0.00000000E+00  0.00000000E+00  0.00000000E+00
  0.00000000E+00  0.00000000E+00  0.00000000E+00
  0.00000000E+00  0.00000000E+00  0.00000000E+00
  0.00000000E+00  0.00000000E+00  0.00000000E+00
  0.00000000E+00  0.00000000E+00  0.00000000E+00
