CeO2 2x2                                
   3.81394000000000     
     2.0000000000000000    0.0000000000000000    0.0000000000000000
     1.0000000000000000    1.7320508075700001    0.0000000000000000
     0.0000000000000000    0.0000000000000000    5.2114018308699999
   Ce   O    C 
    12    28     3
Selective dynamics
Direct
  0.0039208566158527  0.9921821696962155  0.5414975166324790   F   F   F
  0.6674201151189739  0.1643849368725856  0.3857784676250422   F   F   F
  0.6687738120366726  0.6624613015952598  0.3837292798260752   F   F   F
  0.5096766623808222  0.9806710567521549  0.5393668918902330   F   F   F
  0.9918548895024432  0.4964205899097481  0.5429056457772006   F   F   F
  0.5117458573253626  0.4964201200630766  0.5429045921862017   F   F   F
  0.1682040133459582  0.1643846724235203  0.3857787424472713   F   F   F
  0.1692418590121741  0.6615237378207988  0.3862380268844947   F   F   F
  0.3333333244392417  0.3333333511215065  0.2299844838101728   F   F   F
  0.8333333244392330  0.3333333511215065  0.2299844838101728   F   F   F
  0.3333333255318700  0.8333333489362446  0.2299844838101728   F   F   F
  0.8333333255318687  0.8333333489362446  0.2299844838101728   F   F   F
  0.3446986086852933  0.3106183205372023  0.5869792796326656   F   F   F
  0.8365136876707696  0.3269979385468458  0.5766742148770272   F   F   F
  0.3388169357633509  0.8315577406525489  0.5741173053055483   F   F   F
  0.8296499852018963  0.8315635970319553  0.5741198373119528   F   F   F
  0.1708764943476782  0.1684477735927237  0.5015340599538783   F   F   F
  0.6606935663599696  0.1684497639116851  0.5015346989272006   F   F   F
  0.1762683845008050  0.6474812282053445  0.5055732982264327   F   F   F
  0.6718365097225014  0.6563524653543459  0.5014753759423709   F   F   F
  0.0039900382130414  0.9920303970958030  0.4278306046956568   F   F   F
  0.5044026354772767  0.9912072591649876  0.4246861040938585   F   F   F
  0.9989626964586800  0.4991202528194606  0.4239771783377415   F   F   F
  0.5019287439547171  0.4991204979870707  0.4239767947625033   F   F   F
  0.3349597165518257  0.3300867260675150  0.3464044409287192   F   F   F
  0.8359484971674309  0.3281112482285753  0.3457791360044570   F   F   F
  0.3323110380086576  0.8326999474845395  0.3453895575000930   F   F   F
  0.8349940880753504  0.8326998462138366  0.3453894639477565   F   F   F
  0.1666666766533837  0.1666666466932386  0.2693445574826613   F   F   F
  0.6666666766533825  0.1666666466932386  0.2693445574826613   F   F   F
  0.1666666777459966  0.6666666445079837  0.2693445574826613   F   F   F
  0.6666666777459938  0.6666666445079837  0.2693445574826613   F   F   F
  0.0000000000000000  0.0000000000000000  0.1918869495106762   F   F   F
  0.4999999999999994  0.0000000000000000  0.1918869495106762   F   F   F
  0.0000000010926267  0.4999999978147449  0.1918869495106762   F   F   F
  0.5000000010926189  0.4999999978147449  0.1918869495106762   F   F   F
  0.9964801687521367  0.0072972009329222  0.7449598454581819   T   T   T
  0.5430111077623633  0.9140466955784736  0.7454473141835457   T   T   T
  0.4103203011146163  0.4781860000715855  0.6635528087965319   T   T   T
  0.1115263687074952  0.4781859987672132  0.6635573781400560   T   T   T
  1.0016944660553975 -0.0032111782704521  0.6883338510155704   T   T   T
  0.5243909409600305  0.9512705869198564  0.6900331521533548   T   T   T
  0.2872817270168752  0.4254640519305854  0.6439904287008479   T   T   T
 
             NaN             NaN             NaN
             NaN             NaN             NaN
             NaN             NaN             NaN
             NaN             NaN             NaN
             NaN             NaN             NaN
             NaN             NaN             NaN
             NaN             NaN             NaN
             NaN             NaN             NaN
             NaN             NaN             NaN
             NaN             NaN             NaN
             NaN             NaN             NaN
             NaN             NaN             NaN
             NaN             NaN             NaN
             NaN             NaN             NaN
             NaN             NaN             NaN
             NaN             NaN             NaN
             NaN             NaN             NaN
             NaN             NaN             NaN
             NaN             NaN             NaN
             NaN             NaN             NaN
             NaN             NaN             NaN
             NaN             NaN             NaN
             NaN             NaN             NaN
             NaN             NaN             NaN
             NaN             NaN             NaN
             NaN             NaN             NaN
             NaN             NaN             NaN
             NaN             NaN             NaN
             NaN             NaN             NaN
             NaN             NaN             NaN
             NaN             NaN             NaN
             NaN             NaN             NaN
             NaN             NaN             NaN
             NaN             NaN             NaN
             NaN             NaN             NaN
             NaN             NaN             NaN
             NaN             NaN             NaN
             NaN             NaN             NaN
             NaN             NaN             NaN
             NaN             NaN             NaN
             NaN             NaN             NaN
             NaN             NaN             NaN
             NaN             NaN             NaN
